benchmarks/VRPTW/TSPTW/solution/n40w80.003.txt.solution
1 32 19 35 15 17 25 22 33 11 16 39 9 36 6 28 7 23 26 27 21 14 8 38 5 13 34 30 3 2 29 4 24 10 31 18 20 12 41 37 40 
412
